% adapted from https://github.com/MiniZinc/minizinc-examples/blob/master/jobshop/jobshop.mzn

hyperperiod_length = 60;
num_packets = 9;
num_links = 12;

occupancy = [| 23, 50,  0,  0,  0,  0,  0,  0,  0, 
             | 23, 50,  0,  0,  0,  0,  0,  0,  0, 
             | 23,  0,  0,  0,  0, 12, 12,  0,  0,
             |  0, 50,  0,  0,  0,  0,  0,  0,  0, 
             |  0, 50, 18, 18, 18,  0,  0,  0,  0, 
             |  0,  0, 18, 18, 18, 12, 12,  0,  0, 
             |  0,  0, 18, 18, 18, 12, 12,  0,  0, 
             |  0,  0,  0,  0,  0, 12, 12,  0,  0, 
             |  0,  0,  0,  0,  0,  0,  0, 30, 30,
             |  0,  0,  0,  0,  0,  0,  0, 30, 30,
             |  0,  0,  0,  0,  0,  0,  0, 30, 30,
             |  0,  0,  0,  0,  0,  0,  0, 30, 30 |];
  
deadline  = [| 50, 55,  0,  0,  0,  0,  0,  0,  0, 
             | 50, 55,  0,  0,  0,  0,  0,  0,  0, 
             | 50,  0,  0,  0,  0, 28, 58,  0,  0,
             |  0, 55,  0,  0,  0,  0,  0,  0,  0, 
             |  0, 55, 20, 40, 60,  0,  0,  0,  0, 
             |  0,  0, 20, 40, 60, 28, 58,  0,  0, 
             |  0,  0, 20, 40, 60, 28, 58,  0,  0, 
             |  0,  0,  0,  0,  0, 28, 58,  0,  0, 
             |  0,  0,  0,  0,  0,  0,  0, 30, 60,
             |  0,  0,  0,  0,  0,  0,  0, 30, 60,
             |  0,  0,  0,  0,  0,  0,  0, 30, 60,
             |  0,  0,  0,  0,  0,  0,  0, 30, 60 |];
             
min_start = [|  0,  0,  0,  0,  0,  0,  0,  0,  0, 
             |  0,  0,  0,  0,  0,  0,  0,  0,  0, 
             |  0,  0,  0,  0,  0,  0, 30,  0,  0,
             |  0,  0,  0,  0,  0,  0,  0,  0,  0, 
             |  0,  0,  0, 20, 40,  0,  0,  0,  0, 
             |  0,  0,  0, 20, 40,  0, 30,  0,  0, 
             |  0,  0,  0, 20, 40,  0, 30,  0,  0, 
             |  0,  0,  0,  0,  0,  0, 30,  0,  0, 
             |  0,  0,  0,  0,  0,  0,  0,  0, 30,
             |  0,  0,  0,  0,  0,  0,  0,  0, 30,
             |  0,  0,  0,  0,  0,  0,  0,  0, 30,
             |  0,  0,  0,  0,  0,  0,  0,  0, 30 |];
  